10	5
0	3	1	2	3
1	3	7	9	5
2	4	7	10	8	4
3	5	4	9	8	10	7
4	1	6
5	3	8	4	10
6	1	11
7	1	11
8	1	11
9	1	11
10	1	11
11	0
0	0	0	0	0	0	0
1	1	0	0	3	2	2
2	4	2	0	5	0	2
3	7	0	0	1	2	0
4	6	0	0	0	1	4
5	9	0	0	3	0	2
6	6	3	0	0	3	0
7	9	2	0	3	0	0
8	5	2	2	2	4	1
9	5	0	0	1	0	5
10	4	0	5	0	5	0
11	0	0	0	0	0	0
4	6	7	8	8
